
Gurobi 9.0.2 (win64) logging started Sun Dec 27 06:07:41 2020

Changed value of parameter logfile to result\SunCable-20201227T0415\scenario_2030_p0_cab3000.log
   Prev:   Default: 
Gurobi Optimizer version 9.0.2 build v9.0.2rc0 (win64)
Optimize a model with 1243974 rows, 762167 columns and 3491691 nonzeros
Model fingerprint: 0x872636b0
Coefficient statistics:
  Matrix range     [1e-07, 3e+05]
  Objective range  [1e+00, 1e+00]
  Bounds range     [0e+00, 0e+00]
  RHS range        [2e-05, 3e+08]
Warning: Model contains large matrix coefficient range
         Consider reformulating model or setting NumericFocus parameter
         to avoid numerical issues.

Concurrent LP optimizer: primal simplex, dual simplex, and barrier
Showing barrier log only...

Presolve removed 1068997 rows and 595935 columns
Presolve time: 2.81s
Presolved: 174977 rows, 280098 columns, 652320 nonzeros

Ordering time: 0.09s

Barrier statistics:
 Dense cols : 5
 AA' NZ     : 6.422e+05
 Factor NZ  : 3.150e+06 (roughly 200 MBytes of memory)
 Factor Ops : 7.040e+07 (less than 1 second per iteration)
 Threads    : 30

                  Objective                Residual
Iter       Primal          Dual         Primal    Dual     Compl     Time
   0  -2.44569138e+16 -1.07293782e+15  7.13e+06 2.57e+04  2.94e+12     3s
   1  -5.34562747e+15 -1.08597517e+15  1.56e+06 4.55e+06  8.36e+11     4s
   2  -1.61614604e+15 -1.02985088e+15  4.73e+05 1.12e+06  2.46e+11     4s
   3  -3.40473460e+14 -9.30224060e+14  1.01e+05 1.47e+05  4.91e+10     4s
   4  -8.74090379e+13 -5.77695676e+14  2.50e+04 3.79e+04  1.28e+10     4s
   5  -2.50470077e+13 -4.15971150e+14  7.19e+03 2.17e+04  4.82e+09     5s
   6  -1.02704539e+13 -2.56481624e+14  3.06e+03 8.41e+03  2.06e+09     5s
   7  -3.05843007e+12 -1.18691043e+14  1.02e+03 1.14e+03  5.53e+08     5s
   8   3.96764933e+11 -3.33230842e+13  2.50e+01 6.26e+01  6.73e+07     5s
   9   2.97737459e+11 -1.40441995e+12  1.37e-01 1.80e+00  3.13e+06     5s
  10   1.63271548e+11 -6.25923631e+11  6.57e-02 4.12e-01  1.43e+06     6s
  11   5.07380528e+10 -3.11533431e+11  1.35e-02 1.12e-08  6.44e+05     6s
  12   1.99159517e+10 -1.12807620e+11  3.83e-03 1.49e-08  2.34e+05     6s
  13   1.61981543e+10 -5.01247465e+10  2.87e-03 2.24e-08  1.17e+05     7s
  14   1.59408934e+10 -4.11055071e+10  2.26e-03 1.49e-08  1.01e+05     7s
  15   1.15572621e+10 -3.03872760e+10  1.32e-03 1.49e-08  7.39e+04     7s
  16   9.38558496e+09 -4.52755201e+09  7.04e-04 1.49e-08  2.45e+04     7s
  17   7.89378525e+09  1.20084860e+09  2.73e-04 9.31e-09  1.18e+04     7s
  18   7.40493005e+09  4.19147547e+09  1.39e-04 5.59e-09  5.65e+03     8s
  19   7.20331729e+09  4.81523612e+09  8.92e-05 5.59e-09  4.20e+03     8s
  20   7.12137003e+09  5.14892439e+09  6.88e-05 4.66e-09  3.47e+03     8s
  21   7.05367878e+09  5.76659689e+09  5.12e-05 3.73e-09  2.26e+03     8s
  22   6.96727413e+09  5.96849855e+09  2.94e-05 3.73e-09  1.76e+03     9s
  23   6.92682527e+09  6.28619789e+09  2.01e-05 2.79e-09  1.13e+03     9s
  24   6.90856146e+09  6.43939121e+09  1.57e-05 1.86e-09  8.25e+02     9s
  25   6.89760710e+09  6.51786870e+09  1.32e-05 1.86e-09  6.68e+02    10s
  26   6.88826891e+09  6.58529984e+09  1.10e-05 1.86e-09  5.33e+02    10s
  27   6.88026886e+09  6.63845749e+09  8.99e-06 1.86e-09  4.25e+02    10s
  28   6.87222011e+09  6.69910981e+09  7.05e-06 1.86e-09  3.04e+02    11s
  29   6.86705818e+09  6.72041872e+09  5.85e-06 1.86e-09  2.58e+02    11s
  30   6.86508517e+09  6.75755154e+09  5.40e-06 1.86e-09  1.89e+02    11s
  31   6.85700335e+09  6.77522710e+09  3.58e-06 1.86e-09  1.44e+02    11s
  32   6.85053404e+09  6.80243399e+09  2.03e-06 2.79e-09  8.46e+01    12s
  33   6.84796883e+09  6.81159651e+09  1.42e-06 1.86e-09  6.40e+01    12s
  34   6.84605916e+09  6.82190805e+09  9.60e-07 1.86e-09  4.25e+01    12s
  35   6.84536499e+09  6.82986080e+09  8.02e-07 1.86e-09  2.73e+01    13s
  36   6.84469725e+09  6.83186026e+09  6.48e-07 1.86e-09  2.26e+01    13s
  37   6.84393165e+09  6.83457647e+09  4.77e-07 1.86e-09  1.65e+01    13s
  38   6.84340018e+09  6.83605097e+09  3.58e-07 1.86e-09  1.29e+01    13s
  39   6.84307442e+09  6.83713565e+09  3.88e-07 1.86e-09  1.04e+01    14s
  40   6.84267847e+09  6.83849073e+09  2.60e-07 1.86e-09  7.36e+00    14s
  41   6.84246311e+09  6.83922420e+09  5.33e-07 1.86e-09  5.70e+00    14s
  42   6.84225724e+09  6.84021081e+09  4.91e-07 1.86e-09  3.60e+00    15s
  43   6.84219513e+09  6.84073871e+09  4.99e-07 1.86e-09  2.56e+00    15s
  44   6.84203958e+09  6.84093507e+09  4.88e-07 1.86e-09  1.94e+00    15s
  45   6.84196403e+09  6.84157011e+09  3.75e-07 1.86e-09  6.93e-01    16s
  46   6.84188645e+09  6.84172632e+09  9.16e-07 2.79e-09  2.82e-01    16s
  47   6.84184601e+09  6.84174820e+09  5.34e-07 1.86e-09  1.72e-01    16s
  48   6.84184411e+09  6.84177021e+09  5.17e-07 1.86e-09  1.30e-01    16s
  49   6.84182113e+09  6.84177312e+09  3.10e-07 1.86e-09  8.45e-02    17s
  50   6.84179905e+09  6.84178380e+09  1.15e-07 2.79e-09  2.68e-02    17s
  51   6.84178861e+09  6.84178549e+09  2.29e-08 1.86e-09  5.49e-03    17s
  52   6.84178638e+09  6.84178586e+09  3.87e-09 2.79e-09  9.25e-04    18s
  53   6.84178592e+09  6.84178592e+09  4.17e-10 1.56e-08  7.74e-06    18s
  54   6.84178592e+09  6.84178592e+09  1.31e-04 5.44e-08  7.74e-06    18s

Barrier solved model in 54 iterations and 18.09 seconds
Optimal objective 6.84178592e+09

Crossover log...

   20204 DPushes remaining with DInf 0.0000000e+00                18s
     580 DPushes remaining with DInf 0.0000000e+00                20s
       0 DPushes remaining with DInf 0.0000000e+00                20s
Warning: Markowitz tolerance tightened to 0.5

   82727 PPushes remaining with PInf 4.6909604e-02                20s
       0 PPushes remaining with PInf 0.0000000e+00                25s

  Push phase complete: Pinf 0.0000000e+00, Dinf 1.5334617e+01     25s

Iteration    Objective       Primal Inf.    Dual Inf.      Time
   94058    6.8417859e+09   0.000000e+00   1.533462e+01     25s
   94060    6.8417859e+09   0.000000e+00   0.000000e+00     27s

Solved with barrier
Solved in 94060 iterations and 26.60 seconds
Optimal objective  6.841785922e+09
Warning: unscaled primal violation = 0.000876307 and residual = 0.000876307
